c description: Random 3-CNF over 21 variables and 89 clauses
c generator: CNFgen (0.9.2)
c copyright: (C) 2012-2022 Massimo Lauria <massimo.lauria@uniroma1.it>
c url: https://massimolauria.net/cnfgen
c command line: cnfgen --output CNF_4.28/21_bit_89_246.cnf randkcnf 3 21 89
c
p cnf 21 89
12 -18 21 0
-1 -5 12 0
6 -18 -20 0
5 -10 -14 0
-3 6 -9 0
5 -8 10 0
-7 16 17 0
-6 13 -14 0
5 -15 -19 0
-1 9 -18 0
-5 -11 -15 0
7 9 11 0
-4 8 21 0
-1 -10 11 0
-12 -14 17 0
15 17 21 0
14 20 -21 0
-3 5 20 0
-3 5 -8 0
9 -15 -20 0
8 -17 -20 0
5 -16 -21 0
-1 -9 -12 0
-1 -5 -21 0
8 12 13 0
-7 -16 20 0
3 -9 -15 0
5 -6 -15 0
8 -15 20 0
2 -4 13 0
-3 -11 -18 0
-2 -8 -11 0
7 -9 -15 0
-11 -14 18 0
-8 9 17 0
12 19 -20 0
1 -14 -15 0
-7 -11 21 0
-2 5 -11 0
-1 -7 18 0
-4 -7 -15 0
7 -10 -20 0
-1 -12 14 0
-3 16 19 0
6 -12 -21 0
-7 -17 -20 0
-14 16 21 0
15 17 19 0
-12 13 -19 0
-10 14 -18 0
-12 16 -18 0
8 13 15 0
-4 5 7 0
-5 -7 21 0
-1 -2 11 0
3 10 20 0
-5 -7 -14 0
-12 -18 -19 0
4 -5 -13 0
-11 13 -17 0
1 6 12 0
-11 14 21 0
-2 7 -11 0
5 14 16 0
-6 14 18 0
-2 7 -17 0
3 -8 -21 0
5 -10 -17 0
4 -13 -20 0
-9 -17 -19 0
-13 17 -18 0
-3 5 -12 0
-5 6 9 0
2 7 -17 0
-5 -8 -9 0
3 17 -18 0
-1 -13 18 0
2 16 19 0
1 5 -13 0
-4 5 -16 0
-6 11 14 0
-2 15 17 0
-3 4 6 0
-2 -5 -7 0
4 11 -16 0
-4 7 -18 0
1 4 8 0
-4 14 18 0
-4 -14 19 0
